NAME          COPTPROB
OBJSENSE
  MIN
ROWS
 N  __OBJ___
 L  C4074   
 L  C6125   
 L  C7157   
 L  C9465   
 L  C9517   
COLUMNS
    MARKER    'MARKER'                 'INTORG'
    x782      __OBJ___  -1
    x782      C6125     1
    x782      C9517     1
    x1368     __OBJ___  -1
    x1368     C4074     1
    x1368     C6125     1
    x3004     __OBJ___  -1
    x3004     C9465     1
    x3004     C9517     1
    x3086     __OBJ___  -1
    x3086     C4074     1
    x3086     C7157     1
    x3917     __OBJ___  -1
    x3917     C7157     1
    x3917     C9465     1
    MARKER    'MARKER'                 'INTEND'
RHS
    RHS       __OBJ___  2793
    RHS       C4074     1
    RHS       C6125     1
    RHS       C7157     1
    RHS       C9465     1
    RHS       C9517     1
BOUNDS
 UP BOUND     x782      1
 UP BOUND     x1368     1
 UP BOUND     x3004     1
 UP BOUND     x3086     1
 UP BOUND     x3917     1
ENDATA
